units real
atom_style full

dimension 3
boundary p p p

bond_style hybrid harmonic
angle_style hybrid harmonic
dihedral_style hybrid multi/harmonic charmm


pair_style lj/cut 2.0

fix drycmap all cmap dry_ff_20240524_correct.cmap
read_data emerin_67-170_nvt.data fix drycmap crossterm CMAP
fix_modify drycmap energy yes



pair_coeff 1 1   0.1700000   3.2500000   3.6480017
pair_coeff 2 2   0.0157000   1.0690800   1.2000017
pair_coeff 3 3   0.1094001   3.3996700   3.8160006
pair_coeff 4 4   0.0157000   1.9599800   2.2000032
pair_coeff 5 5   0.0860000   3.3996700   3.8160006
pair_coeff 6 6   0.2100000   2.9599200   3.3223979
pair_coeff 7 7   0.1700000   3.2500000   3.6480017
pair_coeff 8 8   0.0157000   2.4713500   2.7739966
pair_coeff 9 9   0.0157000   2.6495300   2.9739969
pair_coeff 10 10   0.2104001   3.0664700   3.4419962
pair_coeff 11 11   0.0000000   0.0000000   0.0000000
pair_coeff 12 12   0.1700000   3.2500000   3.6480017
pair_coeff 13 13   0.0860000   3.3996700   3.8160006
pair_coeff 14 14   0.2100000   2.9599200   3.3223979
pair_coeff 15 15   0.2500000   3.5635900   3.9999945
pair_coeff 16 16   0.0150000   2.5996400   2.9179972
pair_coeff 17 17   0.0860000   3.3996700   3.8160006
pair_coeff 18 18   0.1700000   3.2500000   3.6480017
pair_coeff 19 19   0.0860000   3.3996700   3.8160006
pair_coeff 20 20   0.0150000   2.4214600   2.7179970
pair_coeff 21 21   0.1700000   3.2500000   3.6480017
pair_coeff 22 22   0.0860000   3.3996700   3.8160006
pair_coeff 23 23   0.0150000   2.5105500   2.8179971
pair_coeff 24 24   0.2500000   3.5635900   3.9999945
pair_coeff 25 25   0.0157000   1.0690800   1.2000017
pair_coeff 1 2   0.0516624   2.1595400   2.4240017
pair_coeff 1 3   0.1363745   3.3248350   3.7320011
pair_coeff 1 4   0.0516624   2.6049900   2.9240024
pair_coeff 1 5   0.1209132   3.3248350   3.7320011
pair_coeff 1 6   0.1889444   3.1049600   3.4851998
pair_coeff 1 7   0.1700000   3.2500000   3.6480017
pair_coeff 1 8   0.0516624   2.8606750   3.2109991
pair_coeff 1 9   0.0516624   2.9497650   3.3109993
pair_coeff 1 10   0.1891243   3.1582350   3.5449989
pair_coeff 1 11   0.0000000   1.6250000   1.8240008
pair_coeff 1 12   0.1700000   3.2500000   3.6480017
pair_coeff 1 13   0.1209132   3.3248350   3.7320011
pair_coeff 1 14   0.1889444   3.1049600   3.4851998
pair_coeff 1 15   0.2061553   3.4067950   3.8239981
pair_coeff 1 16   0.0504975   2.9248200   3.2829994
pair_coeff 1 17   0.1209132   3.3248350   3.7320011
pair_coeff 1 18   0.1700000   3.2500000   3.6480017
pair_coeff 1 19   0.1209132   3.3248350   3.7320011
pair_coeff 1 20   0.0504975   2.8357300   3.1829993
pair_coeff 1 21   0.1700000   3.2500000   3.6480017
pair_coeff 1 22   0.1209132   3.3248350   3.7320011
pair_coeff 1 23   0.0504975   2.8802750   3.2329994
pair_coeff 1 24   0.2061553   3.4067950   3.8239981
pair_coeff 1 25   0.0516624   2.1595400   2.4240017
pair_coeff 2 3   0.0414437   2.2343750   2.5080011
pair_coeff 2 4   0.0157000   1.5145300   1.7000024
pair_coeff 2 5   0.0367451   2.2343750   2.5080011
pair_coeff 2 6   0.0574195   2.0145000   2.2611998
pair_coeff 2 7   0.0516624   2.1595400   2.4240017
pair_coeff 2 8   0.0157000   1.7702150   1.9869992
pair_coeff 2 9   0.0157000   1.8593050   2.0869993
pair_coeff 2 10   0.0574742   2.0677750   2.3209990
pair_coeff 2 11   0.0000000   0.5345400   0.6000009
pair_coeff 2 12   0.0516624   2.1595400   2.4240017
pair_coeff 2 13   0.0367451   2.2343750   2.5080011
pair_coeff 2 14   0.0574195   2.0145000   2.2611998
pair_coeff 2 15   0.0626498   2.3163350   2.5999981
pair_coeff 2 16   0.0153460   1.8343600   2.0589995
pair_coeff 2 17   0.0367451   2.2343750   2.5080011
pair_coeff 2 18   0.0516624   2.1595400   2.4240017
pair_coeff 2 19   0.0367451   2.2343750   2.5080011
pair_coeff 2 20   0.0153460   1.7452700   1.9589993
pair_coeff 2 21   0.0516624   2.1595400   2.4240017
pair_coeff 2 22   0.0367451   2.2343750   2.5080011
pair_coeff 2 23   0.0153460   1.7898150   2.0089994
pair_coeff 2 24   0.0626498   2.3163350   2.5999981
pair_coeff 2 25   0.0157000   1.0690800   1.2000017
pair_coeff 3 4   0.0414437   2.6798250   3.0080019
pair_coeff 3 5   0.0969970   3.3996700   3.8160006
pair_coeff 3 6   0.1515718   3.1797950   3.5691992
pair_coeff 3 7   0.1363745   3.3248350   3.7320011
pair_coeff 3 8   0.0414437   2.9355100   3.2949986
pair_coeff 3 9   0.0414437   3.0246000   3.3949987
pair_coeff 3 10   0.1517162   3.2330700   3.6289984
pair_coeff 3 11   0.0000000   1.6998350   1.9080003
pair_coeff 3 12   0.1363745   3.3248350   3.7320011
pair_coeff 3 13   0.0969970   3.3996700   3.8160006
pair_coeff 3 14   0.1515718   3.1797950   3.5691992
pair_coeff 3 15   0.1653784   3.4816300   3.9079975
pair_coeff 3 16   0.0405093   2.9996550   3.3669989
pair_coeff 3 17   0.0969970   3.3996700   3.8160006
pair_coeff 3 18   0.1363745   3.3248350   3.7320011
pair_coeff 3 19   0.0969970   3.3996700   3.8160006
pair_coeff 3 20   0.0405093   2.9105650   3.2669988
pair_coeff 3 21   0.1363745   3.3248350   3.7320011
pair_coeff 3 22   0.0969970   3.3996700   3.8160006
pair_coeff 3 23   0.0405093   2.9551100   3.3169988
pair_coeff 3 24   0.1653784   3.4816300   3.9079975
pair_coeff 3 25   0.0414437   2.2343750   2.5080011
pair_coeff 4 5   0.0367451   2.6798250   3.0080019
pair_coeff 4 6   0.0574195   2.4599500   2.7612005
pair_coeff 4 7   0.0516624   2.6049900   2.9240024
pair_coeff 4 8   0.0157000   2.2156650   2.4869999
pair_coeff 4 9   0.0157000   2.3047550   2.5870000
pair_coeff 4 10   0.0574742   2.5132250   2.8209997
pair_coeff 4 11   0.0000000   0.9799900   1.1000016
pair_coeff 4 12   0.0516624   2.6049900   2.9240024
pair_coeff 4 13   0.0367451   2.6798250   3.0080019
pair_coeff 4 14   0.0574195   2.4599500   2.7612005
pair_coeff 4 15   0.0626498   2.7617850   3.0999988
pair_coeff 4 16   0.0153460   2.2798100   2.5590002
pair_coeff 4 17   0.0367451   2.6798250   3.0080019
pair_coeff 4 18   0.0516624   2.6049900   2.9240024
pair_coeff 4 19   0.0367451   2.6798250   3.0080019
pair_coeff 4 20   0.0153460   2.1907200   2.4590001
pair_coeff 4 21   0.0516624   2.6049900   2.9240024
pair_coeff 4 22   0.0367451   2.6798250   3.0080019
pair_coeff 4 23   0.0153460   2.2352650   2.5090001
pair_coeff 4 24   0.0626498   2.7617850   3.0999988
pair_coeff 4 25   0.0157000   1.5145300   1.7000024
pair_coeff 5 6   0.1343875   3.1797950   3.5691992
pair_coeff 5 7   0.1209132   3.3248350   3.7320011
pair_coeff 5 8   0.0367451   2.9355100   3.2949986
pair_coeff 5 9   0.0367451   3.0246000   3.3949987
pair_coeff 5 10   0.1345155   3.2330700   3.6289984
pair_coeff 5 11   0.0000000   1.6998350   1.9080003
pair_coeff 5 12   0.1209132   3.3248350   3.7320011
pair_coeff 5 13   0.0860000   3.3996700   3.8160006
pair_coeff 5 14   0.1343875   3.1797950   3.5691992
pair_coeff 5 15   0.1466288   3.4816300   3.9079975
pair_coeff 5 16   0.0359166   2.9996550   3.3669989
pair_coeff 5 17   0.0860000   3.3996700   3.8160006
pair_coeff 5 18   0.1209132   3.3248350   3.7320011
pair_coeff 5 19   0.0860000   3.3996700   3.8160006
pair_coeff 5 20   0.0359166   2.9105650   3.2669988
pair_coeff 5 21   0.1209132   3.3248350   3.7320011
pair_coeff 5 22   0.0860000   3.3996700   3.8160006
pair_coeff 5 23   0.0359166   2.9551100   3.3169988
pair_coeff 5 24   0.1466288   3.4816300   3.9079975
pair_coeff 5 25   0.0367451   2.2343750   2.5080011
pair_coeff 6 7   0.1889444   3.1049600   3.4851998
pair_coeff 6 8   0.0574195   2.7156350   3.0481972
pair_coeff 6 9   0.0574195   2.8047250   3.1481974
pair_coeff 6 10   0.2102000   3.0131950   3.3821970
pair_coeff 6 11   0.0000000   1.4799600   1.6611989
pair_coeff 6 12   0.1889444   3.1049600   3.4851998
pair_coeff 6 13   0.1343875   3.1797950   3.5691992
pair_coeff 6 14   0.2100000   2.9599200   3.3223979
pair_coeff 6 15   0.2291288   3.2617550   3.6611962
pair_coeff 6 16   0.0561249   2.7797800   3.1201976
pair_coeff 6 17   0.1343875   3.1797950   3.5691992
pair_coeff 6 18   0.1889444   3.1049600   3.4851998
pair_coeff 6 19   0.1343875   3.1797950   3.5691992
pair_coeff 6 20   0.0561249   2.6906900   3.0201974
pair_coeff 6 21   0.1889444   3.1049600   3.4851998
pair_coeff 6 22   0.1343875   3.1797950   3.5691992
pair_coeff 6 23   0.0561249   2.7352350   3.0701975
pair_coeff 6 24   0.2291288   3.2617550   3.6611962
pair_coeff 6 25   0.0574195   2.0145000   2.2611998
pair_coeff 7 8   0.0516624   2.8606750   3.2109991
pair_coeff 7 9   0.0516624   2.9497650   3.3109993
pair_coeff 7 10   0.1891243   3.1582350   3.5449989
pair_coeff 7 11   0.0000000   1.6250000   1.8240008
pair_coeff 7 12   0.1700000   3.2500000   3.6480017
pair_coeff 7 13   0.1209132   3.3248350   3.7320011
pair_coeff 7 14   0.1889444   3.1049600   3.4851998
pair_coeff 7 15   0.2061553   3.4067950   3.8239981
pair_coeff 7 16   0.0504975   2.9248200   3.2829994
pair_coeff 7 17   0.1209132   3.3248350   3.7320011
pair_coeff 7 18   0.1700000   3.2500000   3.6480017
pair_coeff 7 19   0.1209132   3.3248350   3.7320011
pair_coeff 7 20   0.0504975   2.8357300   3.1829993
pair_coeff 7 21   0.1700000   3.2500000   3.6480017
pair_coeff 7 22   0.1209132   3.3248350   3.7320011
pair_coeff 7 23   0.0504975   2.8802750   3.2329994
pair_coeff 7 24   0.2061553   3.4067950   3.8239981
pair_coeff 7 25   0.0516624   2.1595400   2.4240017
pair_coeff 8 9   0.0157000   2.5604400   2.8739967
pair_coeff 8 10   0.0574742   2.7689100   3.1079964
pair_coeff 8 11   0.0000000   1.2356750   1.3869983
pair_coeff 8 12   0.0516624   2.8606750   3.2109991
pair_coeff 8 13   0.0367451   2.9355100   3.2949986
pair_coeff 8 14   0.0574195   2.7156350   3.0481972
pair_coeff 8 15   0.0626498   3.0174700   3.3869956
pair_coeff 8 16   0.0153460   2.5354950   2.8459969
pair_coeff 8 17   0.0367451   2.9355100   3.2949986
pair_coeff 8 18   0.0516624   2.8606750   3.2109991
pair_coeff 8 19   0.0367451   2.9355100   3.2949986
pair_coeff 8 20   0.0153460   2.4464050   2.7459968
pair_coeff 8 21   0.0516624   2.8606750   3.2109991
pair_coeff 8 22   0.0367451   2.9355100   3.2949986
pair_coeff 8 23   0.0153460   2.4909500   2.7959968
pair_coeff 8 24   0.0626498   3.0174700   3.3869956
pair_coeff 8 25   0.0157000   1.7702150   1.9869992
pair_coeff 9 10   0.0574742   2.8580000   3.2079965
pair_coeff 9 11   0.0000000   1.3247650   1.4869984
pair_coeff 9 12   0.0516624   2.9497650   3.3109993
pair_coeff 9 13   0.0367451   3.0246000   3.3949987
pair_coeff 9 14   0.0574195   2.8047250   3.1481974
pair_coeff 9 15   0.0626498   3.1065600   3.4869957
pair_coeff 9 16   0.0153460   2.6245850   2.9459971
pair_coeff 9 17   0.0367451   3.0246000   3.3949987
pair_coeff 9 18   0.0516624   2.9497650   3.3109993
pair_coeff 9 19   0.0367451   3.0246000   3.3949987
pair_coeff 9 20   0.0153460   2.5354950   2.8459969
pair_coeff 9 21   0.0516624   2.9497650   3.3109993
pair_coeff 9 22   0.0367451   3.0246000   3.3949987
pair_coeff 9 23   0.0153460   2.5800400   2.8959970
pair_coeff 9 24   0.0626498   3.1065600   3.4869957
pair_coeff 9 25   0.0157000   1.8593050   2.0869993
pair_coeff 10 11   0.0000000   1.5332350   1.7209981
pair_coeff 10 12   0.1891243   3.1582350   3.5449989
pair_coeff 10 13   0.1345155   3.2330700   3.6289984
pair_coeff 10 14   0.2102000   3.0131950   3.3821970
pair_coeff 10 15   0.2293470   3.3150300   3.7209954
pair_coeff 10 16   0.0561783   2.8330550   3.1799967
pair_coeff 10 17   0.1345155   3.2330700   3.6289984
pair_coeff 10 18   0.1891243   3.1582350   3.5449989
pair_coeff 10 19   0.1345155   3.2330700   3.6289984
pair_coeff 10 20   0.0561783   2.7439650   3.0799966
pair_coeff 10 21   0.1891243   3.1582350   3.5449989
pair_coeff 10 22   0.1345155   3.2330700   3.6289984
pair_coeff 10 23   0.0561783   2.7885100   3.1299966
pair_coeff 10 24   0.2293470   3.3150300   3.7209954
pair_coeff 10 25   0.0574742   2.0677750   2.3209990
pair_coeff 11 12   0.0000000   1.6250000   1.8240008
pair_coeff 11 13   0.0000000   1.6998350   1.9080003
pair_coeff 11 14   0.0000000   1.4799600   1.6611989
pair_coeff 11 15   0.0000000   1.7817950   1.9999973
pair_coeff 11 16   0.0000000   1.2998200   1.4589986
pair_coeff 11 17   0.0000000   1.6998350   1.9080003
pair_coeff 11 18   0.0000000   1.6250000   1.8240008
pair_coeff 11 19   0.0000000   1.6998350   1.9080003
pair_coeff 11 20   0.0000000   1.2107300   1.3589985
pair_coeff 11 21   0.0000000   1.6250000   1.8240008
pair_coeff 11 22   0.0000000   1.6998350   1.9080003
pair_coeff 11 23   0.0000000   1.2552750   1.4089985
pair_coeff 11 24   0.0000000   1.7817950   1.9999973
pair_coeff 11 25   0.0000000   0.5345400   0.6000009
pair_coeff 12 13   0.1209132   3.3248350   3.7320011
pair_coeff 12 14   0.1889444   3.1049600   3.4851998
pair_coeff 12 15   0.2061553   3.4067950   3.8239981
pair_coeff 12 16   0.0504975   2.9248200   3.2829994
pair_coeff 12 17   0.1209132   3.3248350   3.7320011
pair_coeff 12 18   0.1700000   3.2500000   3.6480017
pair_coeff 12 19   0.1209132   3.3248350   3.7320011
pair_coeff 12 20   0.0504975   2.8357300   3.1829993
pair_coeff 12 21   0.1700000   3.2500000   3.6480017
pair_coeff 12 22   0.1209132   3.3248350   3.7320011
pair_coeff 12 23   0.0504975   2.8802750   3.2329994
pair_coeff 12 24   0.2061553   3.4067950   3.8239981
pair_coeff 12 25   0.0516624   2.1595400   2.4240017
pair_coeff 13 14   0.1343875   3.1797950   3.5691992
pair_coeff 13 15   0.1466288   3.4816300   3.9079975
pair_coeff 13 16   0.0359166   2.9996550   3.3669989
pair_coeff 13 17   0.0860000   3.3996700   3.8160006
pair_coeff 13 18   0.1209132   3.3248350   3.7320011
pair_coeff 13 19   0.0860000   3.3996700   3.8160006
pair_coeff 13 20   0.0359166   2.9105650   3.2669988
pair_coeff 13 21   0.1209132   3.3248350   3.7320011
pair_coeff 13 22   0.0860000   3.3996700   3.8160006
pair_coeff 13 23   0.0359166   2.9551100   3.3169988
pair_coeff 13 24   0.1466288   3.4816300   3.9079975
pair_coeff 13 25   0.0367451   2.2343750   2.5080011
pair_coeff 14 15   0.2291288   3.2617550   3.6611962
pair_coeff 14 16   0.0561249   2.7797800   3.1201976
pair_coeff 14 17   0.1343875   3.1797950   3.5691992
pair_coeff 14 18   0.1889444   3.1049600   3.4851998
pair_coeff 14 19   0.1343875   3.1797950   3.5691992
pair_coeff 14 20   0.0561249   2.6906900   3.0201974
pair_coeff 14 21   0.1889444   3.1049600   3.4851998
pair_coeff 14 22   0.1343875   3.1797950   3.5691992
pair_coeff 14 23   0.0561249   2.7352350   3.0701975
pair_coeff 14 24   0.2291288   3.2617550   3.6611962
pair_coeff 14 25   0.0574195   2.0145000   2.2611998
pair_coeff 15 16   0.0612372   3.0816150   3.4589959
pair_coeff 15 17   0.1466288   3.4816300   3.9079975
pair_coeff 15 18   0.2061553   3.4067950   3.8239981
pair_coeff 15 19   0.1466288   3.4816300   3.9079975
pair_coeff 15 20   0.0612372   2.9925250   3.3589957
pair_coeff 15 21   0.2061553   3.4067950   3.8239981
pair_coeff 15 22   0.1466288   3.4816300   3.9079975
pair_coeff 15 23   0.0612372   3.0370700   3.4089958
pair_coeff 15 24   0.2500000   3.5635900   3.9999945
pair_coeff 15 25   0.0626498   2.3163350   2.5999981
pair_coeff 16 17   0.0359166   2.9996550   3.3669989
pair_coeff 16 18   0.0504975   2.9248200   3.2829994
pair_coeff 16 19   0.0359166   2.9996550   3.3669989
pair_coeff 16 20   0.0150000   2.5105500   2.8179971
pair_coeff 16 21   0.0504975   2.9248200   3.2829994
pair_coeff 16 22   0.0359166   2.9996550   3.3669989
pair_coeff 16 23   0.0150000   2.5550950   2.8679972
pair_coeff 16 24   0.0612372   3.0816150   3.4589959
pair_coeff 16 25   0.0153460   1.8343600   2.0589995
pair_coeff 17 18   0.1209132   3.3248350   3.7320011
pair_coeff 17 19   0.0860000   3.3996700   3.8160006
pair_coeff 17 20   0.0359166   2.9105650   3.2669988
pair_coeff 17 21   0.1209132   3.3248350   3.7320011
pair_coeff 17 22   0.0860000   3.3996700   3.8160006
pair_coeff 17 23   0.0359166   2.9551100   3.3169988
pair_coeff 17 24   0.1466288   3.4816300   3.9079975
pair_coeff 17 25   0.0367451   2.2343750   2.5080011
pair_coeff 18 19   0.1209132   3.3248350   3.7320011
pair_coeff 18 20   0.0504975   2.8357300   3.1829993
pair_coeff 18 21   0.1700000   3.2500000   3.6480017
pair_coeff 18 22   0.1209132   3.3248350   3.7320011
pair_coeff 18 23   0.0504975   2.8802750   3.2329994
pair_coeff 18 24   0.2061553   3.4067950   3.8239981
pair_coeff 18 25   0.0516624   2.1595400   2.4240017
pair_coeff 19 20   0.0359166   2.9105650   3.2669988
pair_coeff 19 21   0.1209132   3.3248350   3.7320011
pair_coeff 19 22   0.0860000   3.3996700   3.8160006
pair_coeff 19 23   0.0359166   2.9551100   3.3169988
pair_coeff 19 24   0.1466288   3.4816300   3.9079975
pair_coeff 19 25   0.0367451   2.2343750   2.5080011
pair_coeff 20 21   0.0504975   2.8357300   3.1829993
pair_coeff 20 22   0.0359166   2.9105650   3.2669988
pair_coeff 20 23   0.0150000   2.4660050   2.7679970
pair_coeff 20 24   0.0612372   2.9925250   3.3589957
pair_coeff 20 25   0.0153460   1.7452700   1.9589993
pair_coeff 21 22   0.1209132   3.3248350   3.7320011
pair_coeff 21 23   0.0504975   2.8802750   3.2329994
pair_coeff 21 24   0.2061553   3.4067950   3.8239981
pair_coeff 21 25   0.0516624   2.1595400   2.4240017
pair_coeff 22 23   0.0359166   2.9551100   3.3169988
pair_coeff 22 24   0.1466288   3.4816300   3.9079975
pair_coeff 22 25   0.0367451   2.2343750   2.5080011
pair_coeff 23 24   0.0612372   3.0370700   3.4089958
pair_coeff 23 25   0.0153460   1.7898150   2.0089994
pair_coeff 24 25   0.0626498   2.3163350   2.5999981
pair_modify shift yes

thermo_style custom step ecoul evdwl ebond eangle edihed f_drycmap eimp

neighbor 4.0 bin
neigh_modify every 1 delay 1 check yes

timestep 1.0
thermo 50

minimize 1.0e-4 1.0e-6 10000 100000

fix 1 all nve
fix 2 all temp/csvr 298.1 298.1 $(100.0*dt) 7042034

dump 1 all xtc 100000 traj_emerin_67-170.xtc
run    1000000000
