units real
atom_style full

dimension 3
boundary p p p

bond_style hybrid harmonic
angle_style hybrid harmonic
dihedral_style hybrid multi/harmonic charmm


pair_style lj/cut 2.0

fix drycmap all cmap dry_ff_20240524_correct.cmap
read_data Nsp2_CtlIDR_nvt.data fix drycmap crossterm CMAP
fix_modify drycmap energy yes



pair_coeff 1 1   0.1700000   3.2500000   3.6480017
pair_coeff 2 2   0.0157000   1.0690800   1.2000017
pair_coeff 3 3   0.1094001   3.3996700   3.8160006
pair_coeff 4 4   0.0157000   1.9599800   2.2000032
pair_coeff 5 5   0.0157000   2.6495300   2.9739969
pair_coeff 6 6   0.0860000   3.3996700   3.8160006
pair_coeff 7 7   0.2100000   2.9599200   3.3223979
pair_coeff 8 8   0.1700000   3.2500000   3.6480017
pair_coeff 9 9   0.0157000   2.4713500   2.7739966
pair_coeff 10 10   0.2100000   2.9599200   3.3223979
pair_coeff 11 11   0.0860000   3.3996700   3.8160006
pair_coeff 12 12   0.0150000   2.5996400   2.9179972
pair_coeff 13 13   0.2104001   3.0664700   3.4419962
pair_coeff 14 14   0.0000000   0.0000000   0.0000000
pair_coeff 1 2   0.0516624   2.1595400   2.4240017
pair_coeff 1 3   0.1363745   3.3248350   3.7320011
pair_coeff 1 4   0.0516624   2.6049900   2.9240024
pair_coeff 1 5   0.0516624   2.9497650   3.3109993
pair_coeff 1 6   0.1209132   3.3248350   3.7320011
pair_coeff 1 7   0.1889444   3.1049600   3.4851998
pair_coeff 1 8   0.1700000   3.2500000   3.6480017
pair_coeff 1 9   0.0516624   2.8606750   3.2109991
pair_coeff 1 10   0.1889444   3.1049600   3.4851998
pair_coeff 1 11   0.1209132   3.3248350   3.7320011
pair_coeff 1 12   0.0504975   2.9248200   3.2829994
pair_coeff 1 13   0.1891243   3.1582350   3.5449989
pair_coeff 1 14   0.0000000   1.6250000   1.8240008
pair_coeff 2 3   0.0414437   2.2343750   2.5080011
pair_coeff 2 4   0.0157000   1.5145300   1.7000024
pair_coeff 2 5   0.0157000   1.8593050   2.0869993
pair_coeff 2 6   0.0367451   2.2343750   2.5080011
pair_coeff 2 7   0.0574195   2.0145000   2.2611998
pair_coeff 2 8   0.0516624   2.1595400   2.4240017
pair_coeff 2 9   0.0157000   1.7702150   1.9869992
pair_coeff 2 10   0.0574195   2.0145000   2.2611998
pair_coeff 2 11   0.0367451   2.2343750   2.5080011
pair_coeff 2 12   0.0153460   1.8343600   2.0589995
pair_coeff 2 13   0.0574742   2.0677750   2.3209990
pair_coeff 2 14   0.0000000   0.5345400   0.6000009
pair_coeff 3 4   0.0414437   2.6798250   3.0080019
pair_coeff 3 5   0.0414437   3.0246000   3.3949987
pair_coeff 3 6   0.0969970   3.3996700   3.8160006
pair_coeff 3 7   0.1515718   3.1797950   3.5691992
pair_coeff 3 8   0.1363745   3.3248350   3.7320011
pair_coeff 3 9   0.0414437   2.9355100   3.2949986
pair_coeff 3 10   0.1515718   3.1797950   3.5691992
pair_coeff 3 11   0.0969970   3.3996700   3.8160006
pair_coeff 3 12   0.0405093   2.9996550   3.3669989
pair_coeff 3 13   0.1517162   3.2330700   3.6289984
pair_coeff 3 14   0.0000000   1.6998350   1.9080003
pair_coeff 4 5   0.0157000   2.3047550   2.5870000
pair_coeff 4 6   0.0367451   2.6798250   3.0080019
pair_coeff 4 7   0.0574195   2.4599500   2.7612005
pair_coeff 4 8   0.0516624   2.6049900   2.9240024
pair_coeff 4 9   0.0157000   2.2156650   2.4869999
pair_coeff 4 10   0.0574195   2.4599500   2.7612005
pair_coeff 4 11   0.0367451   2.6798250   3.0080019
pair_coeff 4 12   0.0153460   2.2798100   2.5590002
pair_coeff 4 13   0.0574742   2.5132250   2.8209997
pair_coeff 4 14   0.0000000   0.9799900   1.1000016
pair_coeff 5 6   0.0367451   3.0246000   3.3949987
pair_coeff 5 7   0.0574195   2.8047250   3.1481974
pair_coeff 5 8   0.0516624   2.9497650   3.3109993
pair_coeff 5 9   0.0157000   2.5604400   2.8739967
pair_coeff 5 10   0.0574195   2.8047250   3.1481974
pair_coeff 5 11   0.0367451   3.0246000   3.3949987
pair_coeff 5 12   0.0153460   2.6245850   2.9459971
pair_coeff 5 13   0.0574742   2.8580000   3.2079965
pair_coeff 5 14   0.0000000   1.3247650   1.4869984
pair_coeff 6 7   0.1343875   3.1797950   3.5691992
pair_coeff 6 8   0.1209132   3.3248350   3.7320011
pair_coeff 6 9   0.0367451   2.9355100   3.2949986
pair_coeff 6 10   0.1343875   3.1797950   3.5691992
pair_coeff 6 11   0.0860000   3.3996700   3.8160006
pair_coeff 6 12   0.0359166   2.9996550   3.3669989
pair_coeff 6 13   0.1345155   3.2330700   3.6289984
pair_coeff 6 14   0.0000000   1.6998350   1.9080003
pair_coeff 7 8   0.1889444   3.1049600   3.4851998
pair_coeff 7 9   0.0574195   2.7156350   3.0481972
pair_coeff 7 10   0.2100000   2.9599200   3.3223979
pair_coeff 7 11   0.1343875   3.1797950   3.5691992
pair_coeff 7 12   0.0561249   2.7797800   3.1201976
pair_coeff 7 13   0.2102000   3.0131950   3.3821970
pair_coeff 7 14   0.0000000   1.4799600   1.6611989
pair_coeff 8 9   0.0516624   2.8606750   3.2109991
pair_coeff 8 10   0.1889444   3.1049600   3.4851998
pair_coeff 8 11   0.1209132   3.3248350   3.7320011
pair_coeff 8 12   0.0504975   2.9248200   3.2829994
pair_coeff 8 13   0.1891243   3.1582350   3.5449989
pair_coeff 8 14   0.0000000   1.6250000   1.8240008
pair_coeff 9 10   0.0574195   2.7156350   3.0481972
pair_coeff 9 11   0.0367451   2.9355100   3.2949986
pair_coeff 9 12   0.0153460   2.5354950   2.8459969
pair_coeff 9 13   0.0574742   2.7689100   3.1079964
pair_coeff 9 14   0.0000000   1.2356750   1.3869983
pair_coeff 10 11   0.1343875   3.1797950   3.5691992
pair_coeff 10 12   0.0561249   2.7797800   3.1201976
pair_coeff 10 13   0.2102000   3.0131950   3.3821970
pair_coeff 10 14   0.0000000   1.4799600   1.6611989
pair_coeff 11 12   0.0359166   2.9996550   3.3669989
pair_coeff 11 13   0.1345155   3.2330700   3.6289984
pair_coeff 11 14   0.0000000   1.6998350   1.9080003
pair_coeff 12 13   0.0561783   2.8330550   3.1799967
pair_coeff 12 14   0.0000000   1.2998200   1.4589986
pair_coeff 13 14   0.0000000   1.5332350   1.7209981
pair_modify shift yes

thermo_style custom step ecoul evdwl ebond eangle edihed f_drycmap eimp

neighbor 4.0 bin
neigh_modify every 1 delay 1 check yes

timestep 1.0
thermo 50

minimize 1.0e-4 1.0e-6 10000 100000

fix 1 all nve
fix 2 all temp/csvr 298.1 298.1 $(100.0*dt) 3368931

fix pl all plumed plumedfile plumed_Nsp2_CtlIDR.dat outfile p.log

dump 1 all xtc 100000 traj_Nsp2_CtlIDR.xtc
run    1000000000
